examples/ssp.cnf
c PEQNP - www.peqnp.science
c contact@peqnp.science
c pip install PEQNP
p cnf 323 1275
-1 -2 -3 -4 -5 -6 -7 -8 -9 -10 0
-1 11 0
1 -11 0
-1 12 0
1 -12 0
-1 13 0
1 -13 0
-1 14 0
1 -14 0
-1 15 0
1 -15 0
-1 16 0
1 -16 0
-1 17 0
1 -17 0
11 -18 0
-11 18 0
12 -19 0
-12 19 0
13 -20 0
-13 20 0
14 -21 0
-14 21 0
15 -22 0
-15 22 0
16 -23 0
-16 23 0
17 -24 0
-17 24 0
-2 25 0
2 -25 0
-2 26 0
2 -26 0
-2 27 0
2 -27 0
-2 28 0
2 -28 0
-2 29 0
2 -29 0
-2 30 0
2 -30 0
25 -31 0
-25 31 0
26 -32 0
-26 32 0
27 -33 0
-27 33 0
28 -34 0
-28 34 0
29 -35 0
-29 35 0
30 -36 0
-30 36 0
-3 37 0
3 -37 0
-3 38 0
3 -38 0
-3 39 0
3 -39 0
-3 40 0
3 -40 0
-3 41 0
3 -41 0
37 -42 0
-37 42 0
38 -43 0
-38 43 0
39 -44 0
-39 44 0
40 -45 0
-40 45 0
41 -46 0
-41 46 0
-4 47 0
4 -47 0
-4 48 0
4 -48 0
-4 49 0
4 -49 0
-4 50 0
4 -50 0
47 -51 0
-47 51 0
48 -52 0
-48 52 0
49 -53 0
-49 53 0
50 -54 0
-50 54 0
-5 55 0
5 -55 0
-5 56 0
5 -56 0
-5 57 0
5 -57 0
55 -58 0
-55 58 0
56 -59 0
-56 59 0
57 -60 0
-57 60 0
-6 61 0
6 -61 0
-6 62 0
6 -62 0
-6 63 0
6 -63 0
-6 64 0
6 -64 0
-6 65 0
6 -65 0
-6 66 0
6 -66 0
61 -67 0
-61 67 0
62 -68 0
-62 68 0
63 -69 0
-63 69 0
64 -70 0
-64 70 0
65 -71 0
-65 71 0
66 -72 0
-66 72 0
-7 73 0
7 -73 0
-7 74 0
7 -74 0
-7 75 0
7 -75 0
-7 76 0
7 -76 0
-7 77 0
7 -77 0
-7 78 0
7 -78 0
73 -79 0
-73 79 0
74 -80 0
-74 80 0
75 -81 0
-75 81 0
76 -82 0
-76 82 0
77 -83 0
-77 83 0
78 -84 0
-78 84 0
-8 85 0
8 -85 0
-8 86 0
8 -86 0
-8 87 0
8 -87 0
-8 88 0
8 -88 0
-8 89 0
8 -89 0
-8 90 0
8 -90 0
85 -91 0
-85 91 0
86 -92 0
-86 92 0
87 -93 0
-87 93 0
88 -94 0
-88 94 0
89 -95 0
-89 95 0
90 -96 0
-90 96 0
-9 97 0
9 -97 0
-9 98 0
9 -98 0
-9 99 0
9 -99 0
-9 100 0
9 -100 0
97 -101 0
-97 101 0
98 -102 0
-98 102 0
99 -103 0
-99 103 0
100 -104 0
-100 104 0
-10 105 0
10 -105 0
-10 106 0
10 -106 0
-10 107 0
10 -107 0
-10 108 0
10 -108 0
-10 109 0
10 -109 0
-10 110 0
10 -110 0
105 -111 0
-105 111 0
106 -112 0
-106 112 0
107 -113 0
-107 113 0
108 -114 0
-108 114 0
109 -115 0
-109 115 0
110 -116 0
-110 116 0
18 -117 0
-18 117 0
18 -118 0
18 -118 0
-18 -118 0
19 -119 118 0
19 119 -118 0
-19 119 118 0
-19 -119 -118 0
19 -120 0
19 118 -120 0
-19 118 -120 0
-19 -118 120 0
20 -121 120 0
20 121 -120 0
-20 121 120 0
-20 -121 -120 0
20 -122 0
20 120 -122 0
-20 120 -122 0
-20 -120 122 0
21 -123 122 0
21 123 -122 0
-21 123 122 0
-21 -123 -122 0
21 -124 0
21 122 -124 0
-21 122 -124 0
-21 -122 124 0
22 -125 124 0
22 125 -124 0
-22 125 124 0
-22 -125 -124 0
22 -126 0
22 124 -126 0
-22 124 -126 0
-22 -124 126 0
23 -127 126 0
23 127 -126 0
-23 127 126 0
-23 -127 -126 0
23 -128 0
23 126 -128 0
-23 126 -128 0
-23 -126 128 0
-129 128 0
129 -128 0
24 -130 0
-24 130 0
24 -131 0
24 -131 0
-24 -131 0
-132 131 0
132 -131 0
31 117 -133 0
-31 117 133 0
31 -117 133 0
-31 -117 -133 0
31 117 -134 0
117 -134 0
31 -117 -134 0
-31 -117 134 0
32 119 -135 134 0
-32 119 -135 -134 0
-32 119 135 134 0
32 119 135 -134 0
32 -119 135 134 0
-32 -119 135 -134 0
-32 -119 -135 134 0
32 -119 -135 -134 0
32 119 -136 0
119 134 -136 0
-32 119 -134 136 0
32 -119 134 -136 0
-32 -119 136 0
-119 -134 136 0
33 121 -137 136 0
-33 121 -137 -136 0
-33 121 137 136 0
33 121 137 -136 0
33 -121 137 136 0
-33 -121 137 -136 0
-33 -121 -137 136 0
33 -121 -137 -136 0
33 121 -138 0
121 136 -138 0
-33 121 -136 138 0
33 -121 136 -138 0
-33 -121 138 0
-121 -136 138 0
34 123 -139 138 0
-34 123 -139 -138 0
-34 123 139 138 0
34 123 139 -138 0
34 -123 139 138 0
-34 -123 139 -138 0
-34 -123 -139 138 0
34 -123 -139 -138 0
34 123 -140 0
123 138 -140 0
-34 123 -138 140 0
34 -123 138 -140 0
-34 -123 140 0
-123 -138 140 0
125 -141 140 0
125 141 -140 0
-125 141 140 0
-125 -141 -140 0
125 -142 0
125 140 -142 0
-125 140 -142 0
-125 -140 142 0
35 127 -143 142 0
-35 127 -143 -142 0
-35 127 143 142 0
35 127 143 -142 0
35 -127 143 142 0
-35 -127 143 -142 0
-35 -127 -143 142 0
35 -127 -143 -142 0
35 127 -144 0
127 142 -144 0
-35 127 -142 144 0
35 -127 142 -144 0
-35 -127 144 0
-127 -142 144 0
129 -145 144 0
129 145 -144 0
-129 145 144 0
-129 -145 -144 0
129 -146 0
129 144 -146 0
-129 144 -146 0
-129 -144 146 0
-147 146 0
147 -146 0
36 130 -148 0
-36 130 148 0
36 -130 148 0
-36 -130 -148 0
36 130 -149 0
130 -149 0
36 -130 -149 0
-36 -130 149 0
132 -150 149 0
132 150 -149 0
-132 150 149 0
-132 -150 -149 0
132 -151 0
132 149 -151 0
-132 149 -151 0
-132 -149 151 0
-152 151 0
152 -151 0
42 133 -153 0
-42 133 153 0
42 -133 153 0
-42 -133 -153 0
42 133 -154 0
133 -154 0
42 -133 -154 0
-42 -133 154 0
43 135 -155 154 0
-43 135 -155 -154 0
-43 135 155 154 0
43 135 155 -154 0
43 -135 155 154 0
-43 -135 155 -154 0
-43 -135 -155 154 0
43 -135 -155 -154 0
43 135 -156 0
135 154 -156 0
-43 135 -154 156 0
43 -135 154 -156 0
-43 -135 156 0
-135 -154 156 0
137 -157 156 0
137 157 -156 0
-137 157 156 0
-137 -157 -156 0
137 -158 0
137 156 -158 0
-137 156 -158 0
-137 -156 158 0
44 139 -159 158 0
-44 139 -159 -158 0
-44 139 159 158 0
44 139 159 -158 0
44 -139 159 158 0
-44 -139 159 -158 0
-44 -139 -159 158 0
44 -139 -159 -158 0
44 139 -160 0
139 158 -160 0
-44 139 -158 160 0
44 -139 158 -160 0
-44 -139 160 0
-139 -158 160 0
141 -161 160 0
141 161 -160 0
-141 161 160 0
-141 -161 -160 0
141 -162 0
141 160 -162 0
-141 160 -162 0
-141 -160 162 0
45 143 -163 162 0
-45 143 -163 -162 0
-45 143 163 162 0
45 143 163 -162 0
45 -143 163 162 0
-45 -143 163 -162 0
-45 -143 -163 162 0
45 -143 -163 -162 0
45 143 -164 0
143 162 -164 0
-45 143 -162 164 0
45 -143 162 -164 0
-45 -143 164 0
-143 -162 164 0
145 -165 164 0
145 165 -164 0
-145 165 164 0
-145 -165 -164 0
145 -166 0
145 164 -166 0
-145 164 -166 0
-145 -164 166 0
147 -167 166 0
147 167 -166 0
-147 167 166 0
-147 -167 -166 0
147 -168 0
147 166 -168 0
-147 166 -168 0
-147 -166 168 0
-169 168 0
169 -168 0
46 148 -170 0
-46 148 170 0
46 -148 170 0
-46 -148 -170 0
46 148 -171 0
148 -171 0
46 -148 -171 0
-46 -148 171 0
150 -172 171 0
150 172 -171 0
-150 172 171 0
-150 -172 -171 0
150 -173 0
150 171 -173 0
-150 171 -173 0
-150 -171 173 0
152 -174 173 0
152 174 -173 0
-152 174 173 0
-152 -174 -173 0
-152 -173 0
153 -175 0
-153 175 0
153 -176 0
153 -176 0
-153 -176 0
155 -177 176 0
155 177 -176 0
-155 177 176 0
-155 -177 -176 0
155 -178 0
155 176 -178 0
-155 176 -178 0
-155 -176 178 0
157 -179 178 0
157 179 -178 0
-157 179 178 0
-157 -179 -178 0
157 -180 0
157 178 -180 0
-157 178 -180 0
-157 -178 180 0
51 159 -181 180 0
-51 159 -181 -180 0
-51 159 181 180 0
51 159 181 -180 0
51 -159 181 180 0
-51 -159 181 -180 0
-51 -159 -181 180 0
51 -159 -181 -180 0
51 159 -182 0
159 180 -182 0
-51 159 -180 182 0
51 -159 180 -182 0
-51 -159 182 0
-159 -180 182 0
52 161 -183 182 0
-52 161 -183 -182 0
-52 161 183 182 0
52 161 183 -182 0
52 -161 183 182 0
-52 -161 183 -182 0
-52 -161 -183 182 0
52 -161 -183 -182 0
52 161 -184 0
161 182 -184 0
-52 161 -182 184 0
52 -161 182 -184 0
-52 -161 184 0
-161 -182 184 0
163 -185 184 0
163 185 -184 0
-163 185 184 0
-163 -185 -184 0
163 -186 0
163 184 -186 0
-163 184 -186 0
-163 -184 186 0
165 -187 186 0
165 187 -186 0
-165 187 186 0
-165 -187 -186 0
165 -188 0
165 186 -188 0
-165 186 -188 0
-165 -186 188 0
53 167 -189 188 0
-53 167 -189 -188 0
-53 167 189 188 0
53 167 189 -188 0
53 -167 189 188 0
-53 -167 189 -188 0
-53 -167 -189 188 0
53 -167 -189 -188 0
53 167 -190 0
167 188 -190 0
-53 167 -188 190 0
53 -167 188 -190 0
-53 -167 190 0
-167 -188 190 0
54 169 -191 190 0
-54 169 -191 -190 0
-54 169 191 190 0
54 169 191 -190 0
54 -169 191 190 0
-54 -169 191 -190 0
-54 -169 -191 190 0
54 -169 -191 -190 0
54 169 -192 0
169 190 -192 0
-54 169 -190 192 0
54 -169 190 -192 0
-54 -169 192 0
-169 -190 192 0
170 -193 192 0
170 193 -192 0
-170 193 192 0
-170 -193 -192 0
170 -194 0
170 192 -194 0
-170 192 -194 0
-170 -192 194 0
172 -195 194 0
172 195 -194 0
-172 195 194 0
-172 -195 -194 0
172 -196 0
172 194 -196 0
-172 194 -196 0
-172 -194 196 0
174 -197 196 0
174 197 -196 0
-174 197 196 0
-174 -197 -196 0
-174 -196 0
175 -198 0
-175 198 0
175 -199 0
175 -199 0
-175 -199 0
58 177 -200 199 0
-58 177 -200 -199 0
-58 177 200 199 0
58 177 200 -199 0
58 -177 200 199 0
-58 -177 200 -199 0
-58 -177 -200 199 0
58 -177 -200 -199 0
58 177 -201 0
177 199 -201 0
-58 177 -199 201 0
58 -177 199 -201 0
-58 -177 201 0
-177 -199 201 0
179 -202 201 0
179 202 -201 0
-179 202 201 0
-179 -202 -201 0
179 -203 0
179 201 -203 0
-179 201 -203 0
-179 -201 203 0
181 -204 203 0
181 204 -203 0
-181 204 203 0
-181 -204 -203 0
181 -205 0
181 203 -205 0
-181 203 -205 0
-181 -203 205 0
183 -206 205 0
183 206 -205 0
-183 206 205 0
-183 -206 -205 0
183 -207 0
183 205 -207 0
-183 205 -207 0
-183 -205 207 0
185 -208 207 0
185 208 -207 0
-185 208 207 0
-185 -208 -207 0
185 -209 0
185 207 -209 0
-185 207 -209 0
-185 -207 209 0
59 187 -210 209 0
-59 187 -210 -209 0
-59 187 210 209 0
59 187 210 -209 0
59 -187 210 209 0
-59 -187 210 -209 0
-59 -187 -210 209 0
59 -187 -210 -209 0
59 187 -211 0
187 209 -211 0
-59 187 -209 211 0
59 -187 209 -211 0
-59 -187 211 0
-187 -209 211 0
189 -212 211 0
189 212 -211 0
-189 212 211 0
-189 -212 -211 0
189 -213 0
189 211 -213 0
-189 211 -213 0
-189 -211 213 0
60 191 -214 213 0
-60 191 -214 -213 0
-60 191 214 213 0
60 191 214 -213 0
60 -191 214 213 0
-60 -191 214 -213 0
-60 -191 -214 213 0
60 -191 -214 -213 0
60 191 -215 0
191 213 -215 0
-60 191 -213 215 0
60 -191 213 -215 0
-60 -191 215 0
-191 -213 215 0
193 -216 215 0
193 216 -215 0
-193 216 215 0
-193 -216 -215 0
193 -217 0
193 215 -217 0
-193 215 -217 0
-193 -215 217 0
195 -218 217 0
195 218 -217 0
-195 218 217 0
-195 -218 -217 0
195 -219 0
195 217 -219 0
-195 217 -219 0
-195 -217 219 0
197 -220 219 0
197 220 -219 0
-197 220 219 0
-197 -220 -219 0
-197 -219 0
198 -221 0
-198 221 0
198 -222 0
198 -222 0
-198 -222 0
67 200 -223 222 0
-67 200 -223 -222 0
-67 200 223 222 0
67 200 223 -222 0
67 -200 223 222 0
-67 -200 223 -222 0
-67 -200 -223 222 0
67 -200 -223 -222 0
67 200 -224 0
200 222 -224 0
-67 200 -222 224 0
67 -200 222 -224 0
-67 -200 224 0
-200 -222 224 0
202 -225 224 0
202 225 -224 0
-202 225 224 0
-202 -225 -224 0
202 -226 0
202 224 -226 0
-202 224 -226 0
-202 -224 226 0
68 204 -227 226 0
-68 204 -227 -226 0
-68 204 227 226 0
68 204 227 -226 0
68 -204 227 226 0
-68 -204 227 -226 0
-68 -204 -227 226 0
68 -204 -227 -226 0
68 204 -228 0
204 226 -228 0
-68 204 -226 228 0
68 -204 226 -228 0
-68 -204 228 0
-204 -226 228 0
69 206 -229 228 0
-69 206 -229 -228 0
-69 206 229 228 0
69 206 229 -228 0
69 -206 229 228 0
-69 -206 229 -228 0
-69 -206 -229 228 0
69 -206 -229 -228 0
69 206 -230 0
206 228 -230 0
-69 206 -228 230 0
69 -206 228 -230 0
-69 -206 230 0
-206 -228 230 0
70 208 -231 230 0
-70 208 -231 -230 0
-70 208 231 230 0
70 208 231 -230 0
70 -208 231 230 0
-70 -208 231 -230 0
-70 -208 -231 230 0
70 -208 -231 -230 0
70 208 -232 0
208 230 -232 0
-70 208 -230 232 0
70 -208 230 -232 0
-70 -208 232 0
-208 -230 232 0
210 -233 232 0
210 233 -232 0
-210 233 232 0
-210 -233 -232 0
210 -234 0
210 232 -234 0
-210 232 -234 0
-210 -232 234 0
71 212 -235 234 0
-71 212 -235 -234 0
-71 212 235 234 0
71 212 235 -234 0
71 -212 235 234 0
-71 -212 235 -234 0
-71 -212 -235 234 0
71 -212 -235 -234 0
71 212 -236 0
212 234 -236 0
-71 212 -234 236 0
71 -212 234 -236 0
-71 -212 236 0
-212 -234 236 0
72 214 -237 236 0
-72 214 -237 -236 0
-72 214 237 236 0
72 214 237 -236 0
72 -214 237 236 0
-72 -214 237 -236 0
-72 -214 -237 236 0
72 -214 -237 -236 0
72 214 -238 0
214 236 -238 0
-72 214 -236 238 0
72 -214 236 -238 0
-72 -214 238 0
-214 -236 238 0
216 -239 238 0
216 239 -238 0
-216 239 238 0
-216 -239 -238 0
216 -240 0
216 238 -240 0
-216 238 -240 0
-216 -238 240 0
218 -241 240 0
218 241 -240 0
-218 241 240 0
-218 -241 -240 0
218 -242 0
218 240 -242 0
-218 240 -242 0
-218 -240 242 0
220 -243 242 0
220 243 -242 0
-220 243 242 0
-220 -243 -242 0
-220 -242 0
221 -244 0
-221 244 0
221 -245 0
221 -245 0
-221 -245 0
223 -246 245 0
223 246 -245 0
-223 246 245 0
-223 -246 -245 0
223 -247 0
223 245 -247 0
-223 245 -247 0
-223 -245 247 0
79 225 -248 247 0
-79 225 -248 -247 0
-79 225 248 247 0
79 225 248 -247 0
79 -225 248 247 0
-79 -225 248 -247 0
-79 -225 -248 247 0
79 -225 -248 -247 0
79 225 -249 0
225 247 -249 0
-79 225 -247 249 0
79 -225 247 -249 0
-79 -225 249 0
-225 -247 249 0
227 -250 249 0
227 250 -249 0
-227 250 249 0
-227 -250 -249 0
227 -251 0
227 249 -251 0
-227 249 -251 0
-227 -249 251 0
80 229 -252 251 0
-80 229 -252 -251 0
-80 229 252 251 0
80 229 252 -251 0
80 -229 252 251 0
-80 -229 252 -251 0
-80 -229 -252 251 0
80 -229 -252 -251 0
80 229 -253 0
229 251 -253 0
-80 229 -251 253 0
80 -229 251 -253 0
-80 -229 253 0
-229 -251 253 0
81 231 -254 253 0
-81 231 -254 -253 0
-81 231 254 253 0
81 231 254 -253 0
81 -231 254 253 0
-81 -231 254 -253 0
-81 -231 -254 253 0
81 -231 -254 -253 0
81 231 -255 0
231 253 -255 0
-81 231 -253 255 0
81 -231 253 -255 0
-81 -231 255 0
-231 -253 255 0
82 233 -256 255 0
-82 233 -256 -255 0
-82 233 256 255 0
82 233 256 -255 0
82 -233 256 255 0
-82 -233 256 -255 0
-82 -233 -256 255 0
82 -233 -256 -255 0
82 233 -257 0
233 255 -257 0
-82 233 -255 257 0
82 -233 255 -257 0
-82 -233 257 0
-233 -255 257 0
235 -258 257 0
235 258 -257 0
-235 258 257 0
-235 -258 -257 0
235 -259 0
235 257 -259 0
-235 257 -259 0
-235 -257 259 0
83 237 -260 259 0
-83 237 -260 -259 0
-83 237 260 259 0
83 237 260 -259 0
83 -237 260 259 0
-83 -237 260 -259 0
-83 -237 -260 259 0
83 -237 -260 -259 0
83 237 -261 0
237 259 -261 0
-83 237 -259 261 0
83 -237 259 -261 0
-83 -237 261 0
-237 -259 261 0
84 239 -262 261 0
-84 239 -262 -261 0
-84 239 262 261 0
84 239 262 -261 0
84 -239 262 261 0
-84 -239 262 -261 0
-84 -239 -262 261 0
84 -239 -262 -261 0
84 239 -263 0
239 261 -263 0
-84 239 -261 263 0
84 -239 261 -263 0
-84 -239 263 0
-239 -261 263 0
241 -264 263 0
241 264 -263 0
-241 264 263 0
-241 -264 -263 0
241 -265 0
241 263 -265 0
-241 263 -265 0
-241 -263 265 0
243 -266 265 0
243 266 -265 0
-243 266 265 0
-243 -266 -265 0
-243 -265 0
244 -267 0
-244 267 0
244 -268 0
244 -268 0
-244 -268 0
246 -269 268 0
246 269 -268 0
-246 269 268 0
-246 -269 -268 0
246 -270 0
246 268 -270 0
-246 268 -270 0
-246 -268 270 0
91 248 -271 270 0
-91 248 -271 -270 0
-91 248 271 270 0
91 248 271 -270 0
91 -248 271 270 0
-91 -248 271 -270 0
-91 -248 -271 270 0
91 -248 -271 -270 0
91 248 -272 0
248 270 -272 0
-91 248 -270 272 0
91 -248 270 -272 0
-91 -248 272 0
-248 -270 272 0
92 250 -273 272 0
-92 250 -273 -272 0
-92 250 273 272 0
92 250 273 -272 0
92 -250 273 272 0
-92 -250 273 -272 0
-92 -250 -273 272 0
92 -250 -273 -272 0
92 250 -274 0
250 272 -274 0
-92 250 -272 274 0
92 -250 272 -274 0
-92 -250 274 0
-250 -272 274 0
252 -275 274 0
252 275 -274 0
-252 275 274 0
-252 -275 -274 0
252 -276 0
252 274 -276 0
-252 274 -276 0
-252 -274 276 0
93 254 -277 276 0
-93 254 -277 -276 0
-93 254 277 276 0
93 254 277 -276 0
93 -254 277 276 0
-93 -254 277 -276 0
-93 -254 -277 276 0
93 -254 -277 -276 0
93 254 -278 0
254 276 -278 0
-93 254 -276 278 0
93 -254 276 -278 0
-93 -254 278 0
-254 -276 278 0
256 -279 278 0
256 279 -278 0
-256 279 278 0
-256 -279 -278 0
256 -280 0
256 278 -280 0
-256 278 -280 0
-256 -278 280 0
94 258 -281 280 0
-94 258 -281 -280 0
-94 258 281 280 0
94 258 281 -280 0
94 -258 281 280 0
-94 -258 281 -280 0
-94 -258 -281 280 0
94 -258 -281 -280 0
94 258 -282 0
258 280 -282 0
-94 258 -280 282 0
94 -258 280 -282 0
-94 -258 282 0
-258 -280 282 0
95 260 -283 282 0
-95 260 -283 -282 0
-95 260 283 282 0
95 260 283 -282 0
95 -260 283 282 0
-95 -260 283 -282 0
-95 -260 -283 282 0
95 -260 -283 -282 0
95 260 -284 0
260 282 -284 0
-95 260 -282 284 0
95 -260 282 -284 0
-95 -260 284 0
-260 -282 284 0
96 262 -285 284 0
-96 262 -285 -284 0
-96 262 285 284 0
96 262 285 -284 0
96 -262 285 284 0
-96 -262 285 -284 0
-96 -262 -285 284 0
96 -262 -285 -284 0
96 262 -286 0
262 284 -286 0
-96 262 -284 286 0
96 -262 284 -286 0
-96 -262 286 0
-262 -284 286 0
264 -287 286 0
264 287 -286 0
-264 287 286 0
-264 -287 -286 0
264 -288 0
264 286 -288 0
-264 286 -288 0
-264 -286 288 0
266 -289 288 0
266 289 -288 0
-266 289 288 0
-266 -289 -288 0
-266 -288 0
267 -290 0
-267 290 0
267 -291 0
267 -291 0
-267 -291 0
269 -292 291 0
269 292 -291 0
-269 292 291 0
-269 -292 -291 0
269 -293 0
269 291 -293 0
-269 291 -293 0
-269 -291 293 0
271 -294 293 0
271 294 -293 0
-271 294 293 0
-271 -294 -293 0
271 -295 0
271 293 -295 0
-271 293 -295 0
-271 -293 295 0
273 -296 295 0
273 296 -295 0
-273 296 295 0
-273 -296 -295 0
273 -297 0
273 295 -297 0
-273 295 -297 0
-273 -295 297 0
101 275 -298 297 0
-101 275 -298 -297 0
-101 275 298 297 0
101 275 298 -297 0
101 -275 298 297 0
-101 -275 298 -297 0
-101 -275 -298 297 0
101 -275 -298 -297 0
101 275 -299 0
275 297 -299 0
-101 275 -297 299 0
101 -275 297 -299 0
-101 -275 299 0
-275 -297 299 0
277 -300 299 0
277 300 -299 0
-277 300 299 0
-277 -300 -299 0
277 -301 0
277 299 -301 0
-277 299 -301 0
-277 -299 301 0
102 279 -302 301 0
-102 279 -302 -301 0
-102 279 302 301 0
102 279 302 -301 0
102 -279 302 301 0
-102 -279 302 -301 0
-102 -279 -302 301 0
102 -279 -302 -301 0
102 279 -303 0
279 301 -303 0
-102 279 -301 303 0
102 -279 301 -303 0
-102 -279 303 0
-279 -301 303 0
103 281 -304 303 0
-103 281 -304 -303 0
-103 281 304 303 0
103 281 304 -303 0
103 -281 304 303 0
-103 -281 304 -303 0
-103 -281 -304 303 0
103 -281 -304 -303 0
103 281 -305 0
281 303 -305 0
-103 281 -303 305 0
103 -281 303 -305 0
-103 -281 305 0
-281 -303 305 0
283 -306 305 0
283 306 -305 0
-283 306 305 0
-283 -306 -305 0
283 -307 0
283 305 -307 0
-283 305 -307 0
-283 -305 307 0
104 285 -308 307 0
-104 285 -308 -307 0
-104 285 308 307 0
104 285 308 -307 0
104 -285 308 307 0
-104 -285 308 -307 0
-104 -285 -308 307 0
104 -285 -308 -307 0
104 285 -309 0
285 307 -309 0
-104 285 -307 309 0
104 -285 307 -309 0
-104 -285 309 0
-285 -307 309 0
287 -310 309 0
287 310 -309 0
-287 310 309 0
-287 -310 -309 0
287 -311 0
287 309 -311 0
-287 309 -311 0
-287 -309 311 0
289 -312 311 0
289 312 -311 0
-289 312 311 0
-289 -312 -311 0
-289 -311 0
-111 290 0
111 -290 0
111 290 -313 0
290 -313 0
111 -290 -313 0
-111 -290 313 0
292 313 0
-292 -313 0
292 -314 0
292 313 -314 0
-292 313 -314 0
-292 -313 314 0
294 314 0
-294 -314 0
294 -315 0
294 314 -315 0
-294 314 -315 0
-294 -314 315 0
112 296 315 0
-112 296 -315 0
-112 -296 315 0
112 -296 -315 0
112 296 -316 0
296 315 -316 0
-112 296 -315 316 0
112 -296 315 -316 0
-112 -296 316 0
-296 -315 316 0
298 316 0
-298 -316 0
298 -317 0
298 316 -317 0
-298 316 -317 0
-298 -316 317 0
-113 300 317 0
113 300 -317 0
113 -300 317 0
-113 -300 -317 0
113 300 -318 0
300 317 -318 0
-113 300 -317 318 0
113 -300 317 -318 0
-113 -300 318 0
-300 -317 318 0
302 -318 0
-302 318 0
302 -319 0
302 318 -319 0
-302 318 -319 0
-302 -318 319 0
114 304 319 0
-114 304 -319 0
-114 -304 319 0
114 -304 -319 0
114 304 -320 0
304 319 -320 0
-114 304 -319 320 0
114 -304 319 -320 0
-114 -304 320 0
-304 -319 320 0
-115 306 320 0
115 306 -320 0
115 -306 320 0
-115 -306 -320 0
115 306 -321 0
306 320 -321 0
-115 306 -320 321 0
115 -306 320 -321 0
-115 -306 321 0
-306 -320 321 0
-116 308 321 0
116 308 -321 0
116 -308 321 0
-116 -308 -321 0
116 308 -322 0
308 321 -322 0
-116 308 -321 322 0
116 -308 321 -322 0
-116 -308 322 0
-308 -321 322 0
310 322 0
-310 -322 0
310 -323 0
310 322 -323 0
-310 322 -323 0
-310 -322 323 0
312 323 0
-312 -323 0
-312 -323 0
c {'bits': [2, 3, 4, 5, 6, 7, 8, 9, 10, 11]}
c [-1, -2, 3, -4, 5, -6, 7, 8, -9, -10, 11, -12, -13, -14, -15, -16, -17, -18, -19, -20, -21, -22, -23, -24, -25, -26, -27, -28, -29, -30, -31, -32, -33, -34, -35, -36, -37, -38, -39, -40, -41, -42, -43, -44, -45, -46, -47, 48, 49, 50, 51, 52, 53, -54, -55, -56, 57, -58, -59, -60, -61, -62, -63, -64, -65, -66, -67, -68, -69, -70, -71, -72, -73, -74, -75, -76, -77, -78, -79, -80, -81, -82, -83, -84, -85, -86, -87, -88, -89, -90, -91, -92, -93, -94, -95, 96, 97, 98, 99, -100, 101, -102, -103, -104, 105, -106, -107, -108, -109, -110, -111, -112, -113, -114, -115, -116, -117, -118, -119, 120, 121, 122, 123, -124, 125, -126, -127, -128, 129, -130, -131, 132, 133, 134, 135, -136, 137, -138, -139, -140, 141, -142, -143, 144, 145, -146, 147, -148, 149, -150, -151, -152, 153, -154, -155, -156, -157, -158, -159, -160, -161, -162, -163, -164, -165, -166, -167, -168, -169, -170, -171, -172, -173, -174, -175, -176, -177, -178, -179, -180, -181, -182, -183, -184, -185, -186, -187, -188, -189, -190, -191, -192, -193, -194, 195, 196, -197, -198, 199, 200, -201, -202, -203, -204, -205, -206, -207, -208, -209, -210, -211, -212, -213, -214, -215, -216, -217, -218, 219, 220, -221, -222, 223, 224, -225, -226, -227, -228, -229, -230, 231, 232, -233, -234, 235, 236, -237, -238, -239, -240, 241, -242, -243, -244, -245, 246, -247, 248, -249, -250, -251, -252, -253, -254, -255, -256, -257, -258, -259, -260, -261, -262, -263, -264, -265, -266, -267, -268, -269, -270, -271, -272, -273, -274, -275, -276, -277, -278, -279, -280, -281, -282, -283, -284, -285, -286, -287, -288, 289, -290, 291, 292, 293, -294, 295, 296, -297, -298, -299, -300, -301, -302, -303, -304, -305, -306, -307, -308, -309, -310, -311, -312, 313, -314, 315, 316, 317, -318, 319, 320, -321, -322, -323, -324, 325, -326, 327, 328, 329, -330, 331, 332, -333, -334, -335, -336, -337, 338, -339, 340, 341, 342, -343, 344, 345, -346, -347, -348, -349, -350, -351, -352, -353, -354, -355, -356, -357, -358, -359, -360, -361, 362, -363, 364, 365, 366, -367, 368, 369, -370, -371, -372, -373, 374, -375, 376, 377, 378, -379, 380, 381, -382, -383, -384, -385, 386, 387, -388, 389, -390, 391, 392, 393, -394, -395, -396, -397, -398, -399, -400, -401, -402, -403, -404, -405, -406, -407, -408, -409, -410, -411, -412, -413, -414, -415, -416, -417, -418, -419, -420, -421, -422, -423, -424, -425, -426, -427, -428, -429, -430, -431, -432, -433, -434, -435, 436, -437, 438, 439, -440, 441, -442, -443, -444, -445, -446, -447, -448, -449, -450, -451, -452, -453, -454, -455, -456, -457, -458, -459, -460, -461, -462, -463, -464, -465, -466, -467, -468, -469, -470, -471, -472, -473, -474, -475, -476, -477, -478, -479, 480, -481, -482, 483, -484, 485, -486, 487, 488, 489, -490, -491, -492, -493, -494, -495, -496, -497, -498, -499, -500, -501, -502, -503, 504, -505, -506, 507, -508, 509, -510, 511, 512, 513, -514, -515, 516, -517, -518, 519, -520, 521, -522, 523, 524, 525, -526, -527, -528, -529, -530, -531, -532, -533, -534, -535, -536, -537, -538, -539, -540, -541, -542, -543, -544, -545, -546, -547, -548, -549, -550, 551, 552, 553, 554, -555, 556, -557, -558, -559, 560, -561, -562, -563, -564, -565, -566, -567, -568, -569, -570, -571, -572, -573, 574, 575, 576, 577, -578, 579, -580, -581, -582, 583, -584, -585, -586, -587, -588, -589, -590, -591, -592, -593, -594, -595, -596, 597, 598, 599, -600, -601, -602, 603, 604, 605, 606, -607, -608, -609, -610, -611, 612, 613, 614, -615, -616, -617, -618, -619, 620, 621, 622, -623, -624, -625, 626, 627, 628, 629, -630, -631, -632, -633, -634, -635, -636, -637, -638, -639, -640, -641, -642, 643, -644, -645, -646, -647, -648, -649, 650, 651, -652, 653, -654, -655, 656, 657, 658, 659, 660, 661, 662, 663, 664, -665, 666, -667, 668, -669, 670, 671, 672, 673, -674, -675, -676, 677, -678, -679, -680, -681, -682, -683, -684, -685, 686, 687, 688, 689, -690, 691, -692, 693, 694, 695, 696, -697, -698, -699, 700, -701, -702, -703, -704, -705, -706, -707, -708, -709, -710, -711, 712, -713, 714, -715, 716, 717, 718, 719, -720, -721, -722, 723, -724, -725, -726, -727, -728, -729, -730, -731, -732, -733, -734, -735, 736, 737, 738, 739, -740, -741, 742, -743, -744, 745, 746, 747, -748, -749, -750, -751, 752, 753, 754, 755, 756, -757, -758, 759, 760, 761, 762, -763, -764, 765, -766, -767, 768, 769, -770, -771, -772, -773, -774, -775, -776, -777, -778, -779, -780, -781]
