examples/ssp.txt
1453925
33920
653
38467
26171
17140
3860
8927
10756
44522
8721
51916
17217
44912
60948
48805
5990
40187
41564
41218
16717
21920
27363
26932
18340
26430
17747
51154
8920
10494
60188
33074
908
8609
58358
20078
52509
62409
27194
56125
62665
59919
31724
40601
58042
759
24855
16017
13894
60620
3706
35628
28989
64132
7364
29011
26967
54132
58606
21074
65422
16369
61440
47981
23
20341
5363
18592
9823
56418
54102
14359
30144
46513
29355
43749
40727
60390
8609
58305
24385
34526
40081
20384
832
9367
46428
16756
14599
17826
2970
41068
24455
22729
56629
1409
1972
62740
48811
39616
59134
